(declare-fun e () String)
(declare-fun c () String)
(declare-fun g () String)
(declare-fun b () String)
(declare-fun a () String)
(declare-fun h () String)
(assert (= (str.++ e h) (str.++ g h "ab")))
(assert (= (str.++ e "fg") (str.++ "h" g c b "b" a)))
(assert (= "a" "gacae"))

(check-sat)
